(set-logic QF_FP)
(set-option :produce-models true)
(set-info :source |Random FP created by PyMPF|)
(set-info :category random)
(set-info :status sat)
(declare-const x Float32)
(assert (= x (fp #b0 #b11111111 #b00011011110111001011011)))
(declare-const y Float32)
(assert (= y (_ -oo 8 24)))
(declare-const z Float32)
(assert (= z ((_ to_fp 8 24) #x0052CCDA)))
(declare-const result Float32)
(assert (= result (fp.fma RNE x y z)))
(assert (= result (_ NaN 8 24)))
(check-sat)
(exit)
